GLPSOL--GLPK LP/MIP Solver 5.0
Parameter(s) specified in the command line:
 --lp ../modeles/2_169.lp --log 2_169.log
Reading problem data from '../modeles/2_169.lp'...
347 rows, 680 columns, 2376 non-zeros
338 integer variables, all of which are binary
1035 lines were read
GLPK Integer Optimizer 5.0
347 rows, 680 columns, 2376 non-zeros
338 integer variables, all of which are binary
Preprocessing...
332 constraint coefficient(s) were reduced
347 rows, 678 columns, 2374 non-zeros
338 integer variables, all of which are binary
Scaling...
 A: min|aij| =  1.401e-04  max|aij| =  4.000e+00  ratio =  2.856e+04
GM: min|aij| =  7.692e-02  max|aij| =  1.300e+01  ratio =  1.690e+02
EQ: min|aij| =  5.917e-03  max|aij| =  1.000e+00  ratio =  1.690e+02
2N: min|aij| =  4.482e-03  max|aij| =  1.771e+00  ratio =  3.951e+02
Constructing initial basis...
Size of triangular part is 347
Solving LP relaxation...
GLPK Simplex Optimizer 5.0
347 rows, 678 columns, 2374 non-zeros
      0: obj =   4.000000000e+00 inf =   9.500e+00 (5)
     25: obj =   4.998774510e-01 inf =   0.000e+00 (0)
*   107: obj =  -1.414028600e+00 inf =   2.363e-17 (0)
OPTIMAL LP SOLUTION FOUND
Integer optimization begins...
Long-step dual simplex will be used
+   107: mip =     not found yet >=              -inf        (1; 0)
+   303: >>>>>  -1.414028600e+00 >=  -1.414028600e+00   0.0% (196; 0)
+   303: mip =  -1.414028600e+00 >=     tree is empty   0.0% (0; 391)
INTEGER OPTIMAL SOLUTION FOUND
Time used:   0.1 secs
Memory used: 1.0 Mb (1091790 bytes)
